projected/problems_b25_r0_d7_m100_s666/_DIMACS/b25_d7_r0_s666_012.cnf
p cnf 181 248 25
c p show 1 2 3 4 5 6 7 8 9 10 11 12 13 14 15 16 17 18 19 20 21 22 23 24 25
-175 -18 0
-175 -16 0
-176 -8 -10 0
-177 176 175 0
-178 15 0
-178 21 0
-179 -1 14 0
-180 179 0
-180 178 0
-181 1 0
-181 -14 0
-26 -15 -21 0
-27 26 0
-27 181 0
-28 27 180 0
-29 28 177 0
-30 19 0
-30 -3 0
-31 -12 0
-31 -23 0
-32 31 0
-32 30 0
-33 3 24 0
-34 -16 9 0
-35 34 0
-35 33 0
-36 35 32 0
-37 36 29 0
-38 5 -10 0
-39 2 0
-39 -3 0
-40 39 0
-40 38 0
-41 -2 3 0
-42 -5 0
-42 10 0
-43 42 0
-43 41 0
-44 43 40 0
-45 21 -15 0
-46 -1 0
-46 9 0
-47 46 0
-47 45 0
-48 47 0
-48 44 0
-49 -23 -15 0
-50 -17 0
-50 23 0
-51 50 49 0
-52 -6 0
-52 3 0
-53 15 -19 0
-54 53 52 0
-55 54 0
-55 51 0
-56 55 48 0
-57 56 0
-57 37 0
-58 7 -12 0
-59 21 0
-59 -21 0
-60 59 0
-60 58 0
-61 -19 0
-61 -10 0
-62 20 -5 0
-63 62 61 0
-64 -20 0
-64 5 0
-65 19 10 0
-66 65 64 0
-67 66 0
-67 63 0
-68 67 60 0
-69 -22 0
-69 8 0
-70 16 -24 0
-71 70 0
-71 69 0
-72 -8 0
-72 10 0
-73 4 0
-73 3 0
-74 73 72 0
-75 74 0
-75 71 0
-76 75 0
-76 68 0
-77 -2 0
-77 3 0
-78 8 0
-78 5 0
-79 -5 0
-79 -8 0
-80 79 78 0
-81 80 0
-81 77 0
-82 9 -5 0
-83 10 7 0
-84 -7 -10 0
-85 84 0
-85 83 0
-86 85 82 0
-87 86 0
-87 81 0
-88 5 15 0
-89 17 0
-89 -4 0
-90 89 88 0
-91 10 21 0
-92 6 8 0
-93 92 91 0
-94 93 90 0
-95 94 0
-95 87 0
-96 95 0
-96 76 0
-97 96 0
-97 57 0
-98 -20 0
-98 6 0
-99 22 2 0
-100 99 98 0
-101 -22 0
-101 -2 0
-102 20 -6 0
-103 102 101 0
-104 103 0
-104 100 0
-105 23 0
-105 2 0
-106 -7 2 0
-107 106 105 0
-108 107 104 0
-109 19 0
-109 -10 0
-110 10 0
-110 -19 0
-111 110 109 0
-112 -22 0
-112 -20 0
-113 112 0
-113 111 0
-114 -19 0
-114 1 0
-115 13 14 0
-116 115 0
-116 114 0
-117 -13 0
-117 -14 0
-118 19 -1 0
-119 118 0
-119 117 0
-120 119 116 0
-121 120 0
-121 113 0
-122 121 0
-122 108 0
-123 -19 0
-123 -25 0
-124 -2 19 0
-125 124 123 0
-126 -14 -7 0
-127 17 0
-128 -17 0
-129 128 0
-129 127 0
-130 129 0
-130 126 0
-131 130 125 0
-132 17 11 0
-133 -22 0
-133 -23 0
-134 133 132 0
-135 8 25 0
-136 8 0
-136 -24 0
-137 136 135 0
-138 137 134 0
-139 138 0
-139 131 0
-140 139 122 0
-141 2 -18 0
-142 25 21 0
-143 142 0
-143 141 0
-144 24 0
-144 -13 0
-145 -11 0
-145 25 0
-146 145 0
-146 144 0
-147 146 143 0
-148 -5 0
-148 -12 0
-149 -18 0
-149 21 0
-150 149 0
-150 148 0
-151 -18 0
-151 -9 0
-152 12 -25 0
-153 152 0
-153 151 0
-154 153 0
-154 150 0
-155 154 0
-155 147 0
-156 -8 0
-156 18 0
-157 -18 0
-157 8 0
-158 157 156 0
-159 -23 0
-160 159 158 0
-161 10 8 0
-162 8 22 0
-163 162 161 0
-164 163 160 0
-165 -17 0
-165 10 0
-166 3 0
-166 -13 0
-167 166 165 0
-168 -22 -23 0
-169 -18 11 0
-170 169 168 0
-171 170 167 0
-172 171 0
-172 164 0
-173 172 155 0
-174 173 0
-174 140 0
174 97 0
-181 -179 0
-179 -181 0
-26 -178 0
-39 -41 0
-38 -42 0
-42 -38 0
-64 -62 0
-61 -65 0
-99 -101 0
-101 -99 0
-98 -102 0
-115 -117 0
-118 -114 0
