projected/problems_b25_r0_d7_m100_s666/b25_d7_r0_s666_012.smt2
(set-logic QF_UF)
(declare-fun A0 () Bool)
(declare-fun A1 () Bool)
(declare-fun A2 () Bool)
(declare-fun A3 () Bool)
(declare-fun A4 () Bool)
(declare-fun A5 () Bool)
(declare-fun A6 () Bool)
(declare-fun A7 () Bool)
(declare-fun A8 () Bool)
(declare-fun A9 () Bool)
(declare-fun A10 () Bool)
(declare-fun A11 () Bool)
(declare-fun A12 () Bool)
(declare-fun A13 () Bool)
(declare-fun A14 () Bool)
(declare-fun A15 () Bool)
(declare-fun A16 () Bool)
(declare-fun A17 () Bool)
(declare-fun A18 () Bool)
(declare-fun A19 () Bool)
(declare-fun A20 () Bool)
(declare-fun A21 () Bool)
(declare-fun A22 () Bool)
(declare-fun A23 () Bool)
(declare-fun A24 () Bool)
(assert (let ((.def_0 (not A15))) (let ((.def_1 (not A17))) (let ((.def_2 (and .def_1 .def_0))) (let ((.def_3 (and A7 A9))) (let ((.def_4 (not .def_3))) (let ((.def_5 (or .def_4 .def_2))) (let ((.def_6 (not .def_5))) (let ((.def_7 (not A13))) (let ((.def_8 (and A0 .def_7))) (let ((.def_9 (not .def_8))) (let ((.def_10 (not A20))) (let ((.def_11 (not A14))) (let ((.def_12 (or .def_11 .def_10))) (let ((.def_13 (= .def_12 .def_9))) (let ((.def_14 (and .def_13 .def_6))) (let ((.def_15 (not A2))) (let ((.def_16 (and A18 .def_15))) (let ((.def_17 (or A11 A22))) (let ((.def_18 (not .def_17))) (let ((.def_19 (and .def_18 .def_16))) (let ((.def_20 (not .def_19))) (let ((.def_21 (or A2 A23))) (let ((.def_22 (not .def_21))) (let ((.def_23 (or .def_0 A8))) (let ((.def_24 (not .def_23))) (let ((.def_25 (or .def_24 .def_22))) (let ((.def_26 (and .def_25 .def_20))) (let ((.def_27 (and .def_26 .def_14))) (let ((.def_28 (not .def_27))) (let ((.def_29 (and A1 .def_15))) (let ((.def_30 (not A9))) (let ((.def_31 (or A4 .def_30))) (let ((.def_32 (not .def_31))) (let ((.def_33 (= .def_32 .def_29))) (let ((.def_34 (and .def_10 A14))) (let ((.def_35 (not A8))) (let ((.def_36 (or A0 .def_35))) (let ((.def_37 (or .def_36 .def_34))) (let ((.def_38 (or .def_37 .def_33))) (let ((.def_39 (not A22))) (let ((.def_40 (or .def_39 .def_11))) (let ((.def_41 (not A16))) (let ((.def_42 (and .def_41 A22))) (let ((.def_43 (or .def_42 .def_40))) (let ((.def_44 (not .def_43))) (let ((.def_45 (or A5 .def_15))) (let ((.def_46 (not .def_45))) (let ((.def_47 (not A18))) (let ((.def_48 (or A14 .def_47))) (let ((.def_49 (or .def_48 .def_46))) (let ((.def_50 (not .def_49))) (let ((.def_51 (or .def_50 .def_44))) (let ((.def_52 (and .def_51 .def_38))) (let ((.def_53 (not .def_52))) (let ((.def_54 (and .def_53 .def_28))) (let ((.def_55 (not .def_54))) (let ((.def_56 (not A11))) (let ((.def_57 (or A6 .def_56))) (let ((.def_58 (or .def_10 A20))) (let ((.def_59 (not .def_58))) (let ((.def_60 (and .def_59 .def_57))) (let ((.def_61 (not A19))) (let ((.def_62 (and .def_61 A4))) (let ((.def_63 (and .def_47 .def_30))) (let ((.def_64 (= .def_63 .def_62))) (let ((.def_65 (or .def_64 .def_60))) (let ((.def_66 (not A7))) (let ((.def_67 (or A21 .def_66))) (let ((.def_68 (not .def_67))) (let ((.def_69 (and .def_0 A23))) (let ((.def_70 (not .def_69))) (let ((.def_71 (and .def_70 .def_68))) (let ((.def_72 (and .def_66 A9))) (let ((.def_73 (and A3 A2))) (let ((.def_74 (or .def_73 .def_72))) (let ((.def_75 (and .def_74 .def_71))) (let ((.def_76 (and .def_75 .def_65))) (let ((.def_77 (not A1))) (let ((.def_78 (and .def_77 A2))) (let ((.def_79 (not A4))) (let ((.def_80 (= .def_79 A7))) (let ((.def_81 (not .def_80))) (let ((.def_82 (and .def_81 .def_78))) (let ((.def_83 (and .def_35 A4))) (let ((.def_84 (= A6 .def_30))) (let ((.def_85 (not .def_84))) (let ((.def_86 (and .def_85 .def_83))) (let ((.def_87 (not .def_86))) (let ((.def_88 (and .def_87 .def_82))) (let ((.def_89 (and .def_79 .def_11))) (let ((.def_90 (not .def_89))) (let ((.def_91 (not A3))) (let ((.def_92 (and A16 .def_91))) (let ((.def_93 (or .def_92 .def_90))) (let ((.def_94 (and .def_30 .def_10))) (let ((.def_95 (or A5 A7))) (let ((.def_96 (not .def_95))) (let ((.def_97 (and .def_96 .def_94))) (let ((.def_98 (not .def_97))) (let ((.def_99 (or .def_98 .def_93))) (let ((.def_100 (and .def_99 .def_88))) (let ((.def_101 (and .def_100 .def_76))) (let ((.def_102 (not .def_101))) (let ((.def_103 (or .def_102 .def_55))) (let ((.def_104 (not .def_103))) (let ((.def_105 (or A21 A1))) (let ((.def_106 (not .def_105))) (let ((.def_107 (and .def_61 A5))) (let ((.def_108 (= .def_107 .def_106))) (let ((.def_109 (and A22 A1))) (let ((.def_110 (and A6 .def_77))) (let ((.def_111 (not .def_110))) (let ((.def_112 (or .def_111 .def_109))) (let ((.def_113 (or .def_112 .def_108))) (let ((.def_114 (not .def_113))) (let ((.def_115 (= A9 A18))) (let ((.def_116 (not .def_115))) (let ((.def_117 (not A21))) (let ((.def_118 (and .def_117 .def_61))) (let ((.def_119 (and .def_118 .def_116))) (let ((.def_120 (or A12 A13))) (let ((.def_121 (not A0))) (let ((.def_122 (or A18 .def_121))) (let ((.def_123 (= .def_122 .def_120))) (let ((.def_124 (not .def_123))) (let ((.def_125 (and .def_124 .def_119))) (let ((.def_126 (not .def_125))) (let ((.def_127 (or .def_126 .def_114))) (let ((.def_128 (not .def_127))) (let ((.def_129 (not A24))) (let ((.def_130 (and .def_47 .def_129))) (let ((.def_131 (or .def_77 A18))) (let ((.def_132 (or .def_131 .def_130))) (let ((.def_133 (not .def_132))) (let ((.def_134 (and A13 A6))) (let ((.def_135 (not .def_134))) (let ((.def_136 (= A16 .def_41))) (let ((.def_137 (and .def_136 .def_135))) (let ((.def_138 (not .def_137))) (let ((.def_139 (and .def_138 .def_133))) (let ((.def_140 (not .def_139))) (let ((.def_141 (or A16 A10))) (let ((.def_142 (not .def_141))) (let ((.def_143 (or A21 A22))) (let ((.def_144 (and .def_143 .def_142))) (let ((.def_145 (and .def_66 .def_129))) (let ((.def_146 (not A23))) (let ((.def_147 (and A7 .def_146))) (let ((.def_148 (not .def_147))) (let ((.def_149 (and .def_148 .def_145))) (let ((.def_150 (and .def_149 .def_144))) (let ((.def_151 (not .def_150))) (let ((.def_152 (and .def_151 .def_140))) (let ((.def_153 (or .def_152 .def_128))) (let ((.def_154 (not .def_153))) (let ((.def_155 (and .def_77 A17))) (let ((.def_156 (not .def_155))) (let ((.def_157 (or A24 A20))) (let ((.def_158 (and .def_157 .def_156))) (let ((.def_159 (not A12))) (let ((.def_160 (and A23 .def_159))) (let ((.def_161 (not .def_160))) (let ((.def_162 (not A10))) (let ((.def_163 (and .def_162 A24))) (let ((.def_164 (not .def_163))) (let ((.def_165 (or .def_164 .def_161))) (let ((.def_166 (not .def_165))) (let ((.def_167 (or .def_166 .def_158))) (let ((.def_168 (or A4 A11))) (let ((.def_169 (or A17 .def_10))) (let ((.def_170 (or .def_169 .def_168))) (let ((.def_171 (or A17 A8))) (let ((.def_172 (not .def_171))) (let ((.def_173 (or A11 .def_129))) (let ((.def_174 (and .def_173 .def_172))) (let ((.def_175 (not .def_174))) (let ((.def_176 (or .def_175 .def_170))) (let ((.def_177 (not .def_176))) (let ((.def_178 (and .def_177 .def_167))) (let ((.def_179 (= .def_1 .def_66))) (let ((.def_180 (and .def_39 .def_39))) (let ((.def_181 (not .def_180))) (let ((.def_182 (and .def_181 .def_179))) (let ((.def_183 (and .def_30 .def_66))) (let ((.def_184 (and .def_66 .def_117))) (let ((.def_185 (and .def_184 .def_183))) (let ((.def_186 (and .def_185 .def_182))) (let ((.def_187 (and .def_41 A9))) (let ((.def_188 (not .def_187))) (let ((.def_189 (and A2 .def_159))) (let ((.def_190 (not .def_189))) (let ((.def_191 (and .def_190 .def_188))) (let ((.def_192 (or .def_117 .def_39))) (let ((.def_193 (not .def_192))) (let ((.def_194 (or .def_1 A10))) (let ((.def_195 (not .def_194))) (let ((.def_196 (and .def_195 .def_193))) (let ((.def_197 (and .def_196 .def_191))) (let ((.def_198 (or .def_197 .def_186))) (let ((.def_199 (not .def_198))) (let ((.def_200 (or .def_199 .def_178))) (let ((.def_201 (not .def_200))) (let ((.def_202 (or .def_201 .def_154))) (let ((.def_203 (not .def_202))) (let ((.def_204 (or .def_203 .def_104))) .def_204))))))))))))))))))))))))))))))))))))))))))))))))))))))))))))))))))))))))))))))))))))))))))))))))))))))))))))))))))))))))))))))))))))))))))))))))))))))))))))))))))))))))))))))))))))))))))))))))))))))))))))))
(check-sat)
